letting n =  10
letting blocks =  [[1, 1], [1, 2], [1, 6], [1, 9], [2, 1], [2, 3], [2, 4], [2, 5], [2, 9], [3, 4], [3, 7], [4, 2], [4, 3], [4, 5], [4, 7], [4, 9], [4, 10], [5, 2], [5, 4], [5, 6], [5, 8], [6, 4], [6, 5], [6, 6], [6, 8], [6, 10], [7, 1], [7, 3], [7, 4], [7, 9], [7, 10], [8, 1], [8, 2], [8, 3], [8, 4], [8, 5], [8, 7], [9, 1], [9, 2], [9, 3], [9, 5], [9, 9], [10, 1], [10, 3], [10, 9], [10, 10]]
